N = 7;
Capacity = 4;
ItemsPerCustomer = [2, 5, 6, 3, 7, 6, 2];
maxItemsPerCustomer = 7;
binCapacity = 50;
SizesOfItems = [|
  17, 10, 0, 0, 0, 0, 0
| 30, 27, 21, 18, 16, 0, 0
| 40, 39, 37, 31, 19, 11, 0
| 32, 17, 14, 0, 0, 0, 0
| 33, 33, 33, 32, 32, 28, 18
| 35, 34, 33, 23, 21, 16, 0
| 50, 50, 0, 0, 0, 0, 0
|];
Distance = [|
  0, 48, 40, 44, 41, 57, 43, 35
| 48, 0, 48, 93, 79, 71, 84, 58
| 40, 48, 0, 72, 81, 23, 82, 73
| 44, 93, 72, 0, 39, 77, 33, 58
| 41, 79, 81, 39, 0, 95, 8, 25
| 57, 71, 23, 77, 95, 0, 94, 91
| 43, 84, 82, 33, 8, 94, 0, 33
| 35, 58, 73, 58, 25, 91, 33, 0
|];
